(set-logic QF_BV)
(declare-fun _substvar_523_ () (_ BitVec 8))
(declare-fun _substvar_279_ () (_ BitVec 8))
(declare-fun _substvar_536_ () (_ BitVec 32))
(declare-fun _substvar_284_ () (_ BitVec 16))
(declare-fun _substvar_288_ () (_ BitVec 16))
(declare-fun _substvar_280_ () (_ BitVec 16))
(assert (let ((?v_15 ((_ zero_extend 24) _substvar_523_)) (?v_14 ((_ zero_extend 16) _substvar_280_)) (?v_9 ((_ zero_extend 16) _substvar_284_))) (let ( (?v_2 ((_ zero_extend 16) _substvar_288_))) (let ((?v_5 (bvadd (bvadd (_ bv0 32) (_ bv1583397 32)) ?v_2))) (let ((?v_17 (bvadd (bvadd (bvadd (bvadd ?v_5 (_ bv15 32)) (_ bv0 32)) (_ bv2 32)) ?v_9))) (let ((?v_28 (bvadd (bvadd (bvadd (bvadd ?v_17 (_ bv7 32)) _substvar_536_) (_ bv2 32)) ?v_14))) (let ((?v_4 (bvadd (bvadd (_ bv0 32) (_ bv1583388 32)) ?v_2))) (let ((?v_8 (bvadd ?v_4 (_ bv6 32)))) (let ((?v_12 (bvadd (bvadd ?v_8 (_ bv0 32)) (_ bv2 32)))) (let ((?v_10 (bvadd ?v_12 ?v_9))) (let ((?v_16 (bvadd ?v_10 (_ bv6 32)))) (let ((?v_19 (bvadd ?v_16 (bvadd _substvar_536_ (_ bv1 32))))) (let ((?v_13 (bvadd ?v_19 (_ bv2 32)))) (let ((?v_24 (bvadd ?v_13 ?v_14))) (let ((?v_22 (bvadd ?v_24 (_ bv6 32)))) (let ((?v_23 (bvadd (bvadd ?v_22 (bvadd ?v_15 (_ bv1 32))) (_ bv2 32)))) (and true true true true true (= _substvar_280_ (bvor (_ bv0 16) ((_ zero_extend 8) _substvar_279_))) true (bvsle (_ bv1040 32) (bvsub (bvadd (bvadd ?v_28 (_ bv15 32)) (bvsub ?v_15 (_ bv8 32))) (_ bv1583192 32))) true true true true true true true true true true true true true true true true true true true true true true (bvule ?v_23 (_ bv1584214 32)) true true true true true (= _substvar_536_ (_ bv1 32)) (bvule ?v_13 (_ bv1584214 32)) true true true true true true true)))))))))))))))))
(check-sat)
(exit)
